Normalized Data/p02_11_normalized_splitx10_0.vrp
NAME:p02_11_NORMALIZED_splitx10_
BEST_KNOWN: 0
COMMENT: 0
DIMENSION: 294
CAPACITY: 1000
EDGE_WEIGHT_FORMAT: FUNCTION
EDGE_WEIGHT_TYPE: EXACT_2D
NODE_COORD_SECTION
1 0.00000 0.00000
2 -34 34
3 -34 34
4 -34 34
5 -34 34
6 -34 34
7 15 11
8 15 11
9 15 11
10 7 -17
11 7 -17
12 7 -17
13 7 -17
14 7 -17
15 7 -17
16 33 -22
17 33 -22
18 33 -22
19 14 -41
20 14 -41
21 -35 -36
22 -35 -36
23 -35 -36
24 -35 -36
25 35 -38
26 35 -38
27 26 -32
28 26 -32
29 26 -32
30 17 27
31 17 27
32 22 11
33 22 11
34 20 -27
35 20 -27
36 20 -27
37 -13 -13
38 -13 -13
39 -13 -13
40 33 38
41 33 38
42 33 38
43 33 38
44 -7 36
45 -7 36
46 -7 36
47 -7 36
48 17 29
49 17 29
50 17 29
51 17 29
52 17 29
53 17 29
54 29 12
55 29 12
56 29 12
57 49 -11
58 49 -11
59 49 -11
60 -31 17
61 -31 17
62 25 -50
63 25 -50
64 25 -50
65 25 -50
66 25 -50
67 25 -50
68 -50 34
69 -50 34
70 -50 34
71 -36 -46
72 -36 -46
73 -36 -46
74 -36 -46
75 -36 -46
76 -36 -46
77 47 15
78 47 15
79 47 15
80 -1 -11
81 -1 -11
82 -1 -11
83 -48 0
84 -48 0
85 18 39
86 18 39
87 6 -14
88 6 -14
89 6 -14
90 6 -14
91 6 -14
92 6 -14
93 32 33
94 -43 20
95 -43 20
96 -43 20
97 -43 20
98 27 33
99 27 33
100 27 33
101 27 33
102 27 33
103 -22 -2
104 -22 -2
105 -22 -2
106 42 24
107 42 24
108 42 24
109 42 24
110 42 24
111 42 24
112 -43 -11
113 -43 -11
114 42 36
115 42 36
116 42 36
117 -8 47
118 -8 47
119 -8 47
120 -8 47
121 -8 47
122 -45 -8
123 -37 -25
124 -37 -25
125 -37 -25
126 31 34
127 31 34
128 31 34
129 31 34
130 31 34
131 31 17
132 31 17
133 31 17
134 27 32
135 27 32
136 27 32
137 27 32
138 15 17
139 -42 23
140 -42 23
141 -42 23
142 -23 -34
143 -23 -34
144 -23 -34
145 -23 -34
146 -23 -34
147 -23 -34
148 -19 26
149 -19 26
150 -19 26
151 -19 26
152 -19 26
153 24 2
154 24 2
155 24 2
156 24 2
157 24 2
158 24 2
159 33 -42
160 33 -42
161 33 -42
162 33 -42
163 33 -42
164 -11 46
165 -11 46
166 -11 46
167 -11 46
168 -11 46
169 14 -27
170 14 -27
171 17 6
172 17 6
173 17 6
174 17 6
175 38 8
176 38 8
177 38 8
178 38 8
179 38 8
180 -11 -3
181 -11 -3
182 -11 -3
183 -11 -3
184 -11 -3
185 15 -31
186 15 -31
187 15 -31
188 15 -31
189 40 10
190 40 10
191 40 10
192 40 10
193 39 18
194 39 18
195 39 18
196 39 18
197 39 18
198 39 18
199 39 18
200 -26 -8
201 -26 -8
202 -26 -8
203 -26 -8
204 -26 -8
205 -26 -8
206 -24 2
207 -24 2
208 -24 2
209 -24 2
210 -24 2
211 -24 2
212 -8 8
213 -8 8
214 -8 8
215 -22 2
216 -22 2
217 -22 2
218 -22 2
219 -22 2
220 17 5
221 17 5
222 17 5
223 17 5
224 17 5
225 35 19
226 35 19
227 35 19
228 35 19
229 35 19
230 10 39
231 10 39
232 10 39
233 10 39
234 10 39
235 10 39
236 3 47
237 3 47
238 3 47
239 35 -7
240 35 -7
241 -31 37
242 -31 37
243 -31 37
244 -31 37
245 -31 37
246 -31 37
247 33 -28
248 33 -28
249 33 -28
250 33 -28
251 33 -28
252 -26 -10
253 -26 -10
254 -26 -10
255 -26 -10
256 -21 -36
257 -21 -36
258 -21 -36
259 -21 -36
260 -21 -36
261 -21 -36
262 17 -13
263 17 -13
264 17 -13
265 -12 -18
266 -25 -16
267 -25 -16
268 -25 -16
269 -25 -16
270 -25 -16
271 -25 -16
272 -48 48
273 -48 48
274 -48 48
275 -48 48
276 -48 48
277 -1 -34
278 -1 -34
279 -1 -34
280 -1 -34
281 -1 -34
282 -1 -34
283 14 42
284 14 42
285 -28 40
286 -28 40
287 -28 40
288 -28 40
289 -28 40
290 23 45
291 23 45
292 31 50
293 31 50
294 31 50
DEMAND_SECTION
1 0
2 200
3 50
4 10
5 10
6 10
7 200
8 200
9 10
10 200
11 50
12 10
13 10
14 10
15 10
16 200
17 100
18 10
19 200
20 200
21 200
22 200
23 10
24 10
25 100
26 50
27 200
28 10
29 10
30 200
31 50
32 100
33 50
34 200
35 100
36 10
37 200
38 200
39 50
40 100
41 10
42 10
43 10
44 100
45 10
46 10
47 10
48 200
49 200
50 50
51 10
52 10
53 10
54 200
55 200
56 50
57 100
58 10
59 10
60 100
61 50
62 200
63 100
64 50
65 10
66 10
67 10
68 200
69 10
70 10
71 200
72 100
73 50
74 10
75 10
76 10
77 100
78 50
79 10
80 100
81 10
82 10
83 200
84 200
85 100
86 50
87 200
88 200
89 10
90 10
91 10
92 10
93 200
94 100
95 50
96 10
97 10
98 100
99 50
100 10
101 10
102 10
103 200
104 200
105 50
106 200
107 100
108 50
109 10
110 10
111 10
112 200
113 200
114 200
115 10
116 10
117 200
118 50
119 10
120 10
121 10
122 200
123 100
124 50
125 10
126 200
127 200
128 10
129 10
130 10
131 200
132 10
133 10
134 100
135 10
136 10
137 10
138 200
139 200
140 100
141 50
142 200
143 50
144 10
145 10
146 10
147 10
148 200
149 100
150 50
151 10
152 10
153 200
154 100
155 10
156 10
157 10
158 10
159 200
160 200
161 50
162 10
163 10
164 100
165 50
166 10
167 10
168 10
169 100
170 50
171 100
172 50
173 10
174 10
175 200
176 100
177 50
178 10
179 10
180 200
181 200
182 10
183 10
184 10
185 100
186 10
187 10
188 10
189 100
190 10
191 10
192 10
193 200
194 100
195 50
196 10
197 10
198 10
199 10
200 200
201 100
202 50
203 10
204 10
205 10
206 200
207 50
208 10
209 10
210 10
211 10
212 200
213 100
214 50
215 200
216 200
217 50
218 10
219 10
220 200
221 200
222 50
223 10
224 10
225 200
226 50
227 10
228 10
229 10
230 200
231 50
232 10
233 10
234 10
235 10
236 200
237 10
238 10
239 200
240 10
241 200
242 50
243 10
244 10
245 10
246 10
247 200
248 100
249 50
250 10
251 10
252 100
253 10
254 10
255 10
256 200
257 100
258 10
259 10
260 10
261 10
262 200
263 100
264 10
265 200
266 100
267 50
268 10
269 10
270 10
271 10
272 200
273 100
274 10
275 10
276 10
277 200
278 200
279 50
280 10
281 10
282 10
283 200
284 100
285 200
286 100
287 50
288 10
289 10
290 100
291 50
292 200
293 200
294 10
DEPOT_SECTION
1
-1
EOF