Normalized Data/p02_11_normalized_splitx10_0.sol
293 -6 8 7 -11 12 13 14 10 169 168 186 185 187 184 280 279 281 277 278 276 80 79 81 -19 18 61 62 65 64 66 63 35 33 -31 195 196 194 192 193 197 198 224 225 228 226 227 130 131 132 -32 53 54 55 188 189 190 191 174 177 175 178 176 -34 26 27 28 160 161 158 159 162 25 24 249 250 -38 37 36 251 254 253 252 203 200 202 204 201 199 -45 44 46 43 286 287 284 288 285 241 240 243 244 242 245 151 147 -49 48 50 52 51 47 30 29 137 -60 59 140 139 138 93 96 95 94 210 208 205 207 206 209 -68 69 67 272 271 274 273 275 4 1 2 3 5 149 148 150 -71 70 74 72 73 75 20 21 23 22 124 122 123 270 269 267 -77 76 78 109 107 105 106 108 110 114 115 113 39 42 40 41 127 129 -83 82 121 112 111 -85 84 291 292 293 290 289 233 232 234 231 229 230 -86 87 91 88 89 90 9 261 263 262 -92 128 126 125 98 99 97 100 101 135 136 133 134 -103 104 102 214 215 216 217 218 -157 156 154 152 153 155 220 219 222 223 221 171 173 170 172 -165 163 164 166 167 116 120 118 117 119 235 236 237 283 282 -183 179 182 181 180 212 213 211 -238 239 56 58 57 16 15 17 247 246 248 -264 257 259 258 260 255 256 144 146 145 142 141 143 266 265 268 0 





OBJ=
2096.318
BEST_KNOWN=
0.000